53476.0
6,10,13,23,25,30,32,37,38,48,53,60,121,134,137,146,147,216,236,249,262,273,281,347,362,373,379,382,419,421,426,446,463,469,473,476,480,493,494,497,539,573,585,599,603,610,612,645,657,672,703,708,718,732,736,737,743,751,770,775,786,822,824,830,838,845,855,886,887,903,914,917,937,945,967,984,986,987,989,992